AME : levi30_15
COMMENT : 30: 36x20 -city problem (levikoppenhol)
TYPE : TSP
DIMENSION : 30
EDGE_WEIGHT_TYPE : EUC_2D
NODE_COORD_SECTION
1 19 6
2 4 4
3 7 22
4 6 23
5 2 30
6 10 22
7 3 34
8 12 10
9 8 24
10 5 11
11 19 3
12 11 15
13 17 31
14 8 18
15 0 20
16 0 2
17 1 18
18 5 24
19 0 27
20 8 12
21 10 5
22 20 16
23 1 19
24 20 26
25 19 22
26 11 18
27 6 10
28 9 23
29 10 9
30 20 5
EOF